588591
587596
565735
565735
565187
564973
553969
553969
553969
553664
548810
544294
543511
542254
542254
538277
536827
536827
533257
530169
530169
530169
530169
530169
530169
528234
527585
522441
522441
522441
522441
520838
520838
520115
520115
509800
509189
509189
509189
509174
507980
507980
504100
504100
504100
504100
504100
503567
503567
501737
501737
498929
497058
497058
497058
488831
488831
488831
488831
484930
484930
484930
484930
484930
484930
484930
484930
483123
480411
479304
479304
476464
476464
476464
476464
474807
474807
472969
472969
466522
466522
466522
466522
466522
466522
466522
466522
466522
466522
466522
466522
465133
465133
465133
465133
465120
465120
463854
461082
458102
